NAME : eil76.538.tour
COMMENT : Length = 538
COMMENT : Found by LKH [Keld Helsgaun] Fri Nov 14 22:42:44 2014
TYPE : TOUR
DIMENSION : 76
TOUR_SECTION
1
62
22
64
42
43
41
56
23
49
24
18
50
25
55
31
10
38
65
66
11
59
14
53
35
7
8
19
54
13
57
15
5
37
20
70
60
71
69
36
47
21
61
28
74
2
30
48
29
45
27
52
34
46
67
26
76
75
4
68
6
51
17
40
12
58
72
39
9
32
44
3
16
63
33
73
-1
EOF
